50
13401

919 289
385 872
86 370
65 91
21 921
77 434
671 100
487 570
566 781
629 169
75 536
117 156
897 479
539 402
835 76
370 177
357 566
779 868
110 402
973 938
29 562
941 381
759 158
808 173
288 325
526 325
939 391
742 932
820 94
218 260
664 118
83 893
516 494
291 342
330 762
393 493
304 643
750 598
727 387
156 547
719 309
617 816
706 59
274 673
264 375
820 61
644 176
636 69
638 739
10 560
